\ This file has been generated by DOcplex
\ ENCODING=ISO-8859-1
\Problem name: <decpomdp.DecPOMDP object at 0x1261a3190> problem

Maximize
 obj: 0.500000000000 V_0 + 0.500000000000 V_1
Subject To
 c1: - 293.345312500000 a0_0 - 401 a0_1 - 291 a0_2 - V_0 >= 0
 c2: - 401 a0_0 - 350 a0_1 - 400 a0_2 - V_0 >= 0
 c3: - 291 a0_0 - 400 a0_1 - 280 a0_2 - V_0 >= 0
 c4: - 297.967187500000 a0_0 - 291 a0_1 - 401 a0_2 - V_1 >= 0
 c5: - 291 a0_0 - 280 a0_1 - 400 a0_2 - V_1 >= 0
 c6: - 401 a0_0 - 400 a0_1 - 350 a0_2 - V_1 >= 0
 c7: a0_0 + a0_1 + a0_2 = 1

Bounds
       a0_0 <= 1
       a0_1 <= 1
       a0_2 <= 1
       V_0 Free
       V_1 Free
End
